\ Model opf_with_dc_load_flow_copy_copy
\ LP format - for model browsing. Use MPS format to capture full model detail.
Minimize
 
Subject To
 heat_demand_coverage_38_2: flexible_load_38[2]
   - 0.3333333333333333 ts_in_38_2 + 0.3333333333333333 ts_out_38_2
   >= 0.5993357809336651
Bounds
 -infinity <= flexible_load_38[2] <= 0.5
 -infinity <= ts_out_38_2 <= 0.2
End
